row=8;
Board=[|0,0,7,8,6,5,0,3,0,0|6,2,9,1,3,0,0,0,8,0|9,7,0,0,5,1,8,2,0,10|0,0,0,0,0,6,0,0,8,1|2,1,6,3,9,5,0,10,4,7|0,0,0,0,0,6,0,5,3,1|6,0,0,0,0,9,0,0,0,0|5,0,0,0,0,3,4,0,0,8|];
bottom=[583200,8820,979776,144000,181440,97200,573440,336000,870912,14000]